c read Graph
c width = 68
c time = 183 ms
c width = 12
c time = 255 ms
c width = 11
c time = 961 ms
c width = 10
c time = 1948 ms
c width = 9
c time = 9055 ms
c width = 9
c time = 299848 ms
s td 344 10 400
b 1 183 185
b 2 100 185 186
b 3 42 186 187
b 4 116 187 188
b 5 110 188 189
b 6 18 189 190
b 7 35 190 191
b 8 17 364
b 9 30 383
b 10 136 141 363
b 11 48 362 363
b 12 61 361 362
b 13 161 360 361
b 14 78 359 360
b 15 27 358 359
b 16 32 357 358
b 17 62 356 357
b 18 173 355 356
b 19 120 354 355
b 20 101 353 354
b 21 75 352 353
b 22 24 351 352
b 23 91 350 351
b 24 84 349 350
b 25 19 348 349
b 26 137 347 348
b 27 155 346 347
b 28 168 345 346
b 29 150 344 345
b 30 128 343 344
b 31 97 342 343
b 32 167 341 342
b 33 157 340 341
b 34 54 339 340
b 35 163 338 339
b 36 152 337 338
b 37 64 336 337
b 38 76 335 336
b 39 67 334 335
b 40 1 272 273
b 41 264 272 273
b 42 156 259 260 365
b 43 181 365 366 384
b 44 4 80 201 202
b 45 4 80 202 208
b 46 13 208 209 213
b 47 68 213 214 228
b 48 178 228 229 230
b 49 86 230 231 255
b 50 113 255 256 257
b 51 175 257 258 259
b 52 259 260 263 365
b 53 31 263 264 281
b 54 79 281 282 293
b 55 65 293 294 296
b 56 50 296 297 299
b 57 41 301 302 313
b 58 56 313 314 326
b 59 60 160 326 327
b 60 125 365 366 367 384
b 61 125 365 367 384 385
b 62 31 41 125 365 367 369 385
b 63 31 41 367 368 369
b 64 3 31 41 125 365 369 370 385
b 65 3 31 41 125 299 313 365 370 385
b 66 3 41 125 299 301 313
b 67 3 125 299 300 301
b 68 3 31 41 299 313 365 370 385 388
b 69 3 31 41 385 387 388
b 70 31 41 385 386 387
b 71 31 50 65 79 259 299 313 365 370 388
b 72 31 50 65 79 259 263 299 365
b 73 31 50 65 79 263 296 299
b 74 31 65 79 263 293 296
b 75 31 79 263 281 293
b 76 50 65 68 79 178 259 313 370 388 391
b 77 50 65 68 79 178 259 313 370 373 391
b 78 68 79 178 370 372 373
b 79 68 79 370 371 372
b 80 50 65 68 178 213 230 259 313 373 391
b 81 68 178 213 228 230
b 82 68 79 178 388 389 391
b 83 79 178 389 390 391
b 84 50 56 60 160 175 213 313 377 395
b 85 50 65 160 175 213 313 376 377 395
b 86 50 65 113 160 175 213 313 375 376 395
b 87 50 65 113 160 175 213 313 374 375 395
b 88 50 65 113 160 175 213 313 374 393 395
b 89 50 65 113 160 175 213 313 374 392 393
b 90 50 65 113 175 213 255 257 313 374 392
b 91 50 65 175 213 255 257 259 313 374 392
b 92 50 65 86 213 230 255 259 313 374 392
b 93 50 65 86 213 230 259 313 373 374 392
b 94 50 65 86 213 230 259 313 373 391 392
b 95 13 50 56 60 175 213 377 395 398
b 96 13 50 56 60 175 213 377 380 398
b 97 4 13 50 56 80 213 380 398
b 98 4 50 56 80 380 382
b 99 4 80 380 381 382
b 100 4 13 80 208 213
b 101 4 50 56 80 398 400
b 102 4 80 398 399 400
b 103 13 60 175 377 379 380
b 104 13 60 377 378 379
b 105 13 60 175 395 397 398
b 106 13 60 395 396 397
b 107 65 113 393 394 395
b 108 56 60 160 313 326
b 109 130 325 326
b 110 314 325 326
b 111 26 324 325
b 112 314 324 325
b 113 51 323 324
b 114 314 323 324
b 115 73 322 323
b 116 314 322 323
b 117 180 321 322
b 118 314 321 322
b 119 58 320 321
b 120 314 320 321
b 121 53 319 320
b 122 314 319 320
b 123 74 318 319
b 124 314 318 319
b 125 33 317 318
b 126 314 317 318
b 127 170 316 317
b 128 314 316 317
b 129 102 315 316
b 130 314 315 316
b 131 164 314 315
b 132 107 312 313
b 133 302 312 313
b 134 52 311 312
b 135 302 311 312
b 136 8 310 311
b 137 302 310 311
b 138 92 309 310
b 139 302 309 310
b 140 44 308 309
b 141 302 308 309
b 142 43 307 308
b 143 302 307 308
b 144 174 306 307
b 145 302 306 307
b 146 149 305 306
b 147 302 305 306
b 148 145 304 305
b 149 302 304 305
b 150 124 303 304
b 151 302 303 304
b 152 15 302 303
b 153 39 298 299
b 154 297 298 299
b 155 94 297 298
b 156 129 295 296
b 157 294 295 296
b 158 14 294 295
b 159 82 292 293
b 160 282 292 293
b 161 147 291 292
b 162 282 291 292
b 163 166 290 291
b 164 282 290 291
b 165 138 289 290
b 166 282 289 290
b 167 59 288 289
b 168 282 288 289
b 169 7 287 288
b 170 282 287 288
b 171 111 286 287
b 172 282 286 287
b 173 46 285 286
b 174 282 285 286
b 175 40 284 285
b 176 282 284 285
b 177 109 283 284
b 178 282 283 284
b 179 83 282 283
b 180 172 280 281
b 181 264 280 281
b 182 69 279 280
b 183 264 279 280
b 184 144 278 279
b 185 264 278 279
b 186 122 277 278
b 187 264 277 278
b 188 87 276 277
b 189 264 276 277
b 190 90 275 276
b 191 264 275 276
b 192 72 274 275
b 193 264 274 275
b 194 38 273 274
b 195 264 273 274
b 196 119 271 272
b 197 264 271 272
b 198 171 270 271
b 199 264 270 271
b 200 28 269 270
b 201 264 269 270
b 202 45 268 269
b 203 264 268 269
b 204 25 267 268
b 205 264 267 268
b 206 123 266 267
b 207 264 266 267
b 208 169 265 266
b 209 264 265 266
b 210 6 264 265
b 211 143 262 263
b 212 260 262 263
b 213 176 261 262
b 214 260 261 262
b 215 21 260 261
b 216 5 258 259
b 217 108 256 257
b 218 63 254 255
b 219 231 254 255
b 220 135 253 254
b 221 231 253 254
b 222 47 252 253
b 223 231 252 253
b 224 85 251 252
b 225 231 251 252
b 226 158 250 251
b 227 231 250 251
b 228 134 249 250
b 229 231 249 250
b 230 162 248 249
b 231 231 248 249
b 232 12 247 248
b 233 231 247 248
b 234 49 246 247
b 235 231 246 247
b 236 81 245 246
b 237 231 245 246
b 238 131 244 245
b 239 231 244 245
b 240 177 243 244
b 241 231 243 244
b 242 114 242 243
b 243 231 242 243
b 244 23 241 242
b 245 231 241 242
b 246 88 240 241
b 247 231 240 241
b 248 148 239 240
b 249 231 239 240
b 250 66 238 239
b 251 231 238 239
b 252 103 237 238
b 253 231 237 238
b 254 133 236 237
b 255 231 236 237
b 256 121 235 236
b 257 231 235 236
b 258 118 234 235
b 259 231 234 235
b 260 99 233 234
b 261 231 233 234
b 262 96 232 233
b 263 231 232 233
b 264 106 231 232
b 265 55 229 230
b 266 132 227 228
b 267 214 227 228
b 268 159 226 227
b 269 214 226 227
b 270 140 225 226
b 271 214 225 226
b 272 77 224 225
b 273 214 224 225
b 274 151 223 224
b 275 214 223 224
b 276 154 222 223
b 277 214 222 223
b 278 89 221 222
b 279 214 221 222
b 280 105 220 221
b 281 214 220 221
b 282 184 219 220
b 283 214 219 220
b 284 139 218 219
b 285 214 218 219
b 286 2 217 218
b 287 214 217 218
b 288 16 216 217
b 289 214 216 217
b 290 22 215 216
b 291 214 215 216
b 292 20 214 215
b 293 127 212 213
b 294 209 212 213
b 295 104 211 212
b 296 209 211 212
b 297 165 210 211
b 298 209 210 211
b 299 126 209 210
b 300 117 207 208
b 301 202 207 208
b 302 179 206 207
b 303 202 206 207
b 304 146 205 206
b 305 202 205 206
b 306 115 204 205
b 307 202 204 205
b 308 112 203 204
b 309 202 203 204
b 310 98 202 203
b 311 181 383 384
b 312 156 364 365
b 313 11 331 332
b 314 60 331 332
b 315 37 332 333
b 316 60 332 333
b 317 60 333 334
b 318 60 330 331
b 319 70 330 331
b 320 60 329 330
b 321 95 329 330
b 322 60 328 329
b 323 153 328 329
b 324 60 327 328
b 325 71 327 328
b 326 4 200 201
b 327 182 200 201
b 328 4 199 200
b 329 93 199 200
b 330 4 198 199
b 331 57 198 199
b 332 4 197 198
b 333 36 197 198
b 334 4 196 197
b 335 34 196 197
b 336 4 195 196
b 337 29 195 196
b 338 4 194 195
b 339 142 194 195
b 340 4 193 194
b 341 10 193 194
b 342 4 192 193
b 343 9 192 193
b 344 4 191 192
1 2
2 3
3 4
4 5
5 6
6 7
7 344
8 312
9 311
10 11
11 12
12 13
13 14
14 15
15 16
16 17
17 18
18 19
19 20
20 21
21 22
22 23
23 24
24 25
25 26
26 27
27 28
28 29
29 30
30 31
31 32
32 33
33 34
34 35
35 36
36 37
37 38
38 39
39 317
40 41
41 197
41 195
42 312
42 52
43 311
43 60
44 326
44 45
45 301
45 100
46 294
46 100
47 267
47 81
48 265
48 81
49 219
49 92
50 217
50 90
51 216
51 91
52 212
52 72
53 181
53 75
54 160
54 75
55 157
55 74
56 154
56 73
57 133
57 66
58 110
58 108
59 324
59 108
60 61
61 62
62 64
62 63
64 65
65 68
65 66
66 67
68 71
68 69
69 70
71 76
71 72
72 73
73 74
74 75
76 82
76 77
77 80
77 78
78 79
80 94
80 81
82 83
84 108
84 95
84 85
85 86
86 87
87 88
88 107
88 89
89 90
90 91
91 92
92 93
93 94
95 96
95 105
96 103
96 97
97 101
97 100
97 98
98 99
101 102
103 104
105 106
109 110
110 112
111 112
112 114
113 114
114 116
115 116
116 118
117 118
118 120
119 120
120 122
121 122
122 124
123 124
124 126
125 126
126 128
127 128
128 130
129 130
130 131
132 133
133 135
134 135
135 137
136 137
137 139
138 139
139 141
140 141
141 143
142 143
143 145
144 145
145 147
146 147
147 149
148 149
149 151
150 151
151 152
153 154
154 155
156 157
157 158
159 160
160 162
161 162
162 164
163 164
164 166
165 166
166 168
167 168
168 170
169 170
170 172
171 172
172 174
173 174
174 176
175 176
176 178
177 178
178 179
180 181
181 183
182 183
183 185
184 185
185 187
186 187
187 189
188 189
189 191
190 191
191 193
192 193
193 195
194 195
196 197
197 199
198 199
199 201
200 201
201 203
202 203
203 205
204 205
205 207
206 207
207 209
208 209
209 210
211 212
212 214
213 214
214 215
218 219
219 221
220 221
221 223
222 223
223 225
224 225
225 227
226 227
227 229
228 229
229 231
230 231
231 233
232 233
233 235
234 235
235 237
236 237
237 239
238 239
239 241
240 241
241 243
242 243
243 245
244 245
245 247
246 247
247 249
248 249
249 251
250 251
251 253
252 253
253 255
254 255
255 257
256 257
257 259
258 259
259 261
260 261
261 263
262 263
263 264
266 267
267 269
268 269
269 271
270 271
271 273
272 273
273 275
274 275
275 277
276 277
277 279
278 279
279 281
280 281
281 283
282 283
283 285
284 285
285 287
286 287
287 289
288 289
289 291
290 291
291 292
293 294
294 296
295 296
296 298
297 298
298 299
300 301
301 303
302 303
303 305
304 305
305 307
306 307
307 309
308 309
309 310
313 314
314 318
314 316
315 316
316 317
318 320
318 319
320 322
320 321
322 324
322 323
324 325
326 328
326 327
328 330
328 329
330 332
330 331
332 334
332 333
334 336
334 335
336 338
336 337
338 340
338 339
340 342
340 341
342 344
342 343
